(declare-const in20 Int)
(declare-const in22 Int)
(declare-const in21 Int)
(declare-const in24 Int)
(declare-const in23 Int)
(declare-const in26 Int)
(declare-const in25 Int)
(declare-const in28 Int)
(declare-const in27 Int)
(declare-const in0 Int)
(declare-const in2 Int)
(declare-const in1 Int)
(declare-const in4 Int)
(declare-const in3 Int)
(declare-const in6 Int)
(declare-const in5 Int)
(declare-const in8 Int)
(declare-const in7 Int)
(declare-const in11 Int)
(declare-const in10 Int)
(declare-const in9 Int)
(declare-const in13 Int)
(declare-const in12 Int)
(declare-const in15 Int)
(declare-const in17 Int)
(declare-const in16 Int)
(declare-const in19 Int)
(declare-const in18 Int)

(assert (and (and (and (and (and (and (and (and (and (and (and (and (and  ( <  in0 in28)  ( <  in1 in27))  ( <  in2 in26))  ( <  in3 in25))  ( <  in4 in24))  ( <  in5 in23))  ( <  in6 in22))  ( <  in7 in21))  ( <  in8 in20))  ( <  in9 in19))  ( <  in10 in18))  ( <  in11 in17))  ( <  in12 in16))  ( <  in13 in15)))

(check-sat)
(get-model)